predicate array_var_int_element_offset(var int: idx,array [int] of var int: x,var int: c,int: offset);
predicate fzn_circuit_offset(array [int] of var int: x,int: offset);
array [1..17] of int: X_INTRODUCED_34_ = [0,633,257,91,412,150,80,134,259,505,353,324,70,211,268,246,121];
array [1..17] of int: X_INTRODUCED_36_ = [633,0,390,661,227,488,572,530,555,289,282,638,567,466,420,745,518];
array [1..17] of int: X_INTRODUCED_38_ = [257,390,0,228,169,112,196,154,372,262,110,437,191,74,53,472,142];
array [1..17] of int: X_INTRODUCED_40_ = [91,661,228,0,383,120,77,105,175,476,324,240,27,182,239,237,84];
array [1..17] of int: X_INTRODUCED_42_ = [412,227,169,383,0,267,351,309,338,196,61,421,346,243,199,528,297];
array [1..17] of int: X_INTRODUCED_44_ = [150,488,112,120,267,0,63,34,264,360,208,329,83,105,123,364,35];
array [1..17] of int: X_INTRODUCED_46_ = [80,572,196,77,351,63,0,29,232,444,292,297,47,150,207,332,29];
array [1..17] of int: X_INTRODUCED_48_ = [134,530,154,105,309,34,29,0,249,402,250,314,68,108,165,349,36];
array [1..17] of int: X_INTRODUCED_50_ = [259,555,372,175,338,264,232,249,0,495,352,95,189,326,383,202,236];
array [1..17] of int: X_INTRODUCED_52_ = [505,289,262,476,196,360,444,402,495,0,154,578,439,336,240,685,390];
array [1..17] of int: X_INTRODUCED_54_ = [353,282,110,324,61,208,292,250,352,154,0,435,287,184,140,542,238];
array [1..17] of int: X_INTRODUCED_56_ = [324,638,437,240,421,329,297,314,95,578,435,0,254,391,448,157,301];
array [1..17] of int: X_INTRODUCED_58_ = [70,567,191,27,346,83,47,68,189,439,287,254,0,145,202,289,55];
array [1..17] of int: X_INTRODUCED_60_ = [211,466,74,182,243,105,150,108,326,336,184,391,145,0,57,426,96];
array [1..17] of int: X_INTRODUCED_62_ = [268,420,53,239,199,123,207,165,383,240,140,448,202,57,0,483,153];
array [1..17] of int: X_INTRODUCED_64_ = [246,745,472,237,528,364,332,349,202,685,542,157,289,426,483,0,336];
array [1..17] of int: X_INTRODUCED_66_ = [121,518,142,84,297,35,29,36,236,390,238,301,55,96,153,336,0];
var 2..17: X_INTRODUCED_16_;
var {1,3,4,5,6,7,8,9,10,11,12,13,14,15,16,17}: X_INTRODUCED_17_;
var {1,2,4,5,6,7,8,9,10,11,12,13,14,15,16,17}: X_INTRODUCED_18_;
var {1,2,3,5,6,7,8,9,10,11,12,13,14,15,16,17}: X_INTRODUCED_19_;
var {1,2,3,4,6,7,8,9,10,11,12,13,14,15,16,17}: X_INTRODUCED_20_;
var {1,2,3,4,5,7,8,9,10,11,12,13,14,15,16,17}: X_INTRODUCED_21_;
var {1,2,3,4,5,6,8,9,10,11,12,13,14,15,16,17}: X_INTRODUCED_22_;
var {1,2,3,4,5,6,7,9,10,11,12,13,14,15,16,17}: X_INTRODUCED_23_;
var {1,2,3,4,5,6,7,8,10,11,12,13,14,15,16,17}: X_INTRODUCED_24_;
var {1,2,3,4,5,6,7,8,9,11,12,13,14,15,16,17}: X_INTRODUCED_25_;
var {1,2,3,4,5,6,7,8,9,10,12,13,14,15,16,17}: X_INTRODUCED_26_;
var {1,2,3,4,5,6,7,8,9,10,11,13,14,15,16,17}: X_INTRODUCED_27_;
var {1,2,3,4,5,6,7,8,9,10,11,12,14,15,16,17}: X_INTRODUCED_28_;
var {1,2,3,4,5,6,7,8,9,10,11,12,13,15,16,17}: X_INTRODUCED_29_;
var {1,2,3,4,5,6,7,8,9,10,11,12,13,14,16,17}: X_INTRODUCED_30_;
var {1,2,3,4,5,6,7,8,9,10,11,12,13,14,15,17}: X_INTRODUCED_31_;
var 1..16: X_INTRODUCED_32_;
var 1258..9828: objective:: is_defined_var;
var {70,80,91,121,134,150,211,246,257,259,268,324,353,412,505,633}: X_INTRODUCED_35_ ::var_is_introduced :: is_defined_var;
var {227,282,289,390,420,466,488,518,530,555,567,572,633,638,661,745}: X_INTRODUCED_37_ ::var_is_introduced :: is_defined_var;
var {53,74,110,112,142,154,169,191,196,228,257,262,372,390,437,472}: X_INTRODUCED_39_ ::var_is_introduced :: is_defined_var;
var {27,77,84,91,105,120,175,182,228,237,239,240,324,383,476,661}: X_INTRODUCED_41_ ::var_is_introduced :: is_defined_var;
var {61,169,196,199,227,243,267,297,309,338,346,351,383,412,421,528}: X_INTRODUCED_43_ ::var_is_introduced :: is_defined_var;
var {34,35,63,83,105,112,120,123,150,208,264,267,329,360,364,488}: X_INTRODUCED_45_ ::var_is_introduced :: is_defined_var;
var {29,47,63,77,80,150,196,207,232,292,297,332,351,444,572}: X_INTRODUCED_47_ ::var_is_introduced :: is_defined_var;
var {29,34,36,68,105,108,134,154,165,249,250,309,314,349,402,530}: X_INTRODUCED_49_ ::var_is_introduced :: is_defined_var;
var {95,175,189,202,232,236,249,259,264,326,338,352,372,383,495,555}: X_INTRODUCED_51_ ::var_is_introduced :: is_defined_var;
var {154,196,240,262,289,336,360,390,402,439,444,476,495,505,578,685}: X_INTRODUCED_53_ ::var_is_introduced :: is_defined_var;
var {61,110,140,154,184,208,238,250,282,287,292,324,352,353,435,542}: X_INTRODUCED_55_ ::var_is_introduced :: is_defined_var;
var {95,157,240,254,297,301,314,324,329,391,421,435,437,448,578,638}: X_INTRODUCED_57_ ::var_is_introduced :: is_defined_var;
var {27,47,55,68,70,83,145,189,191,202,254,287,289,346,439,567}: X_INTRODUCED_59_ ::var_is_introduced :: is_defined_var;
var {57,74,96,105,108,145,150,182,184,211,243,326,336,391,426,466}: X_INTRODUCED_61_ ::var_is_introduced :: is_defined_var;
var {53,57,123,140,153,165,199,202,207,239,240,268,383,420,448,483}: X_INTRODUCED_63_ ::var_is_introduced :: is_defined_var;
var {157,202,237,246,289,332,336,349,364,426,472,483,528,542,685,745}: X_INTRODUCED_65_ ::var_is_introduced :: is_defined_var;
var {29,35,36,55,84,96,121,142,153,236,238,297,301,336,390,518}: X_INTRODUCED_67_ ::var_is_introduced :: is_defined_var;
array [1..17] of var int: Next:: output_array([1..17]) = [X_INTRODUCED_16_,X_INTRODUCED_17_,X_INTRODUCED_18_,X_INTRODUCED_19_,X_INTRODUCED_20_,X_INTRODUCED_21_,X_INTRODUCED_22_,X_INTRODUCED_23_,X_INTRODUCED_24_,X_INTRODUCED_25_,X_INTRODUCED_26_,X_INTRODUCED_27_,X_INTRODUCED_28_,X_INTRODUCED_29_,X_INTRODUCED_30_,X_INTRODUCED_31_,X_INTRODUCED_32_];
array [1..17] of var int: X_INTRODUCED_68_ ::var_is_introduced  = [X_INTRODUCED_35_,X_INTRODUCED_37_,X_INTRODUCED_39_,X_INTRODUCED_41_,X_INTRODUCED_43_,X_INTRODUCED_45_,X_INTRODUCED_47_,X_INTRODUCED_49_,X_INTRODUCED_51_,X_INTRODUCED_53_,X_INTRODUCED_55_,X_INTRODUCED_57_,X_INTRODUCED_59_,X_INTRODUCED_61_,X_INTRODUCED_63_,X_INTRODUCED_65_,X_INTRODUCED_67_];
constraint array_var_int_element_offset(X_INTRODUCED_16_,X_INTRODUCED_34_,X_INTRODUCED_35_,1);
constraint array_var_int_element_offset(X_INTRODUCED_17_,X_INTRODUCED_36_,X_INTRODUCED_37_,1);
constraint array_var_int_element_offset(X_INTRODUCED_18_,X_INTRODUCED_38_,X_INTRODUCED_39_,1);
constraint array_var_int_element_offset(X_INTRODUCED_19_,X_INTRODUCED_40_,X_INTRODUCED_41_,1);
constraint array_var_int_element_offset(X_INTRODUCED_20_,X_INTRODUCED_42_,X_INTRODUCED_43_,1);
constraint array_var_int_element_offset(X_INTRODUCED_21_,X_INTRODUCED_44_,X_INTRODUCED_45_,1);
constraint array_var_int_element_offset(X_INTRODUCED_22_,X_INTRODUCED_46_,X_INTRODUCED_47_,1);
constraint array_var_int_element_offset(X_INTRODUCED_23_,X_INTRODUCED_48_,X_INTRODUCED_49_,1);
constraint array_var_int_element_offset(X_INTRODUCED_24_,X_INTRODUCED_50_,X_INTRODUCED_51_,1);
constraint array_var_int_element_offset(X_INTRODUCED_25_,X_INTRODUCED_52_,X_INTRODUCED_53_,1);
constraint array_var_int_element_offset(X_INTRODUCED_26_,X_INTRODUCED_54_,X_INTRODUCED_55_,1);
constraint array_var_int_element_offset(X_INTRODUCED_27_,X_INTRODUCED_56_,X_INTRODUCED_57_,1);
constraint array_var_int_element_offset(X_INTRODUCED_28_,X_INTRODUCED_58_,X_INTRODUCED_59_,1);
constraint array_var_int_element_offset(X_INTRODUCED_29_,X_INTRODUCED_60_,X_INTRODUCED_61_,1);
constraint array_var_int_element_offset(X_INTRODUCED_30_,X_INTRODUCED_62_,X_INTRODUCED_63_,1);
constraint array_var_int_element_offset(X_INTRODUCED_31_,X_INTRODUCED_64_,X_INTRODUCED_65_,1);
constraint array_var_int_element_offset(X_INTRODUCED_32_,X_INTRODUCED_66_,X_INTRODUCED_67_,1);
constraint fzn_circuit_offset(Next,1);
constraint int_lin_eq([1,1,1,1,1,1,1,1,1,1,1,1,1,1,1,1,1,-1],[X_INTRODUCED_35_,X_INTRODUCED_37_,X_INTRODUCED_39_,X_INTRODUCED_41_,X_INTRODUCED_43_,X_INTRODUCED_45_,X_INTRODUCED_47_,X_INTRODUCED_49_,X_INTRODUCED_51_,X_INTRODUCED_53_,X_INTRODUCED_55_,X_INTRODUCED_57_,X_INTRODUCED_59_,X_INTRODUCED_61_,X_INTRODUCED_63_,X_INTRODUCED_65_,X_INTRODUCED_67_,objective],0):: defines_var(objective);
solve  minimize objective;
